c Generated map
c Size: 8 * 8, weights in range: 1 to 10, walls: True, with ratio 0.05
c dim 5 of 8
c
p sp 64 101
c graph contains 64 nodes and 101 arcs
c
a 1 9 7
a 9 1 7
a 3 11 6
a 11 3 6
a 3 4 6
a 4 3 6
a 4 12 7
a 12 4 7
a 4 5 5
a 5 4 5
a 5 13 9
a 13 5 9
a 5 6 6
a 6 5 6
a 6 14 9
a 14 6 9
a 6 7 2
a 7 6 2
a 7 15 8
a 15 7 8
a 7 8 6
a 8 7 6
a 8 16 2
a 16 8 2
a 9 17 10
a 17 9 10
a 9 10 7
a 10 9 7
a 10 18 3
a 18 10 3
a 10 11 7
a 11 10 7
a 11 19 10
a 19 11 10
a 11 12 7
a 12 11 7
a 12 20 10
a 20 12 10
a 12 13 3
a 13 12 3
a 13 21 5
a 21 13 5
a 13 14 8
a 14 13 8
a 14 22 5
a 22 14 5
a 14 15 1
a 15 14 1
a 15 23 6
a 23 15 6
a 15 16 3
a 16 15 3
a 16 24 4
a 24 16 4
a 17 25 5
a 25 17 5
a 17 18 5
a 18 17 5
a 18 19 2
a 19 18 2
a 19 27 8
a 27 19 8
a 19 20 7
a 20 19 7
a 20 28 10
a 28 20 10
a 20 21 10
a 21 20 10
a 21 29 9
a 29 21 9
a 21 22 10
a 22 21 10
a 22 30 6
a 30 22 6
a 22 23 4
a 23 22 4
a 23 24 9
a 24 23 9
a 24 32 5
a 32 24 5
a 25 33 9
a 33 25 9
a 27 35 3
a 35 27 3
a 27 28 1
a 28 27 1
a 28 36 2
a 36 28 2
a 28 29 6
a 29 28 6
a 29 37 2
a 37 29 2
a 29 30 3
a 30 29 3
a 30 38 4
a 38 30 4
a 32 40 7
a 40 32 7
a 33 41 8
a 41 33 8
a 33 34 6
a 34 33 6
a 34 42 2
a 42 34 2
a 34 35 9
a 35 34 9
a 35 43 6
a 43 35 6
a 35 36 4
a 36 35 4
a 36 44 7
a 44 36 7
a 36 37 8
a 37 36 8
a 37 45 5
a 45 37 5
a 37 38 7
a 38 37 7
a 38 46 5
a 46 38 5
a 38 39 8
a 39 38 8
a 39 47 6
a 47 39 6
a 39 40 10
a 40 39 10
a 40 48 9
a 48 40 9
a 41 49 4
a 49 41 4
a 41 42 1
a 42 41 1
a 42 50 7
a 50 42 7
a 42 43 2
a 43 42 2
a 43 51 1
a 51 43 1
a 43 44 5
a 44 43 5
a 44 52 2
a 52 44 2
a 44 45 1
a 45 44 1
a 45 53 10
a 53 45 10
a 45 46 1
a 46 45 1
a 46 54 3
a 54 46 3
a 46 47 4
a 47 46 4
a 47 55 2
a 55 47 2
a 47 48 3
a 48 47 3
a 48 56 3
a 56 48 3
a 49 57 2
a 57 49 2
a 49 50 5
a 50 49 5
a 50 58 4
a 58 50 4
a 50 51 7
a 51 50 7
a 51 59 8
a 59 51 8
a 51 52 4
a 52 51 4
a 52 60 8
a 60 52 8
a 52 53 5
a 53 52 5
a 53 61 4
a 61 53 4
a 53 54 2
a 54 53 2
a 54 62 1
a 62 54 1
a 54 55 5
a 55 54 5
a 55 63 2
a 63 55 2
a 55 56 5
a 56 55 5
a 56 64 6
a 64 56 6
a 57 58 2
a 58 57 2
a 58 59 4
a 59 58 4
a 59 60 3
a 60 59 3
a 60 61 7
a 61 60 7
a 61 62 3
a 62 61 3
a 62 63 7
a 63 62 7
a 63 64 10
a 64 63 10
